c Random generated cnf formula, satisfiable: true
p cnf 10 50
4 -8 -1 0
10 -8 5 0
5 4 -6 0
-1 6 3 0
-3 -9 -1 0
2 -7 -6 0
3 -1 9 0
-1 -4 -5 0
-3 5 -8 0
-7 -8 -6 0
-6 4 8 0
2 -9 3 0
7 2 8 0
-10 -4 -9 0
-2 5 -6 0
9 -6 10 0
-7 5 -3 0
-10 -3 -5 0
-2 4 -3 0
-9 -2 -3 0
7 -6 8 0
2 -5 8 0
-7 -10 -3 0
-2 -3 -7 0
-6 -5 -3 0
-1 -7 3 0
9 -1 -2 0
1 -3 -2 0
4 -7 -8 0
5 -1 7 0
-9 4 -2 0
-5 -1 6 0
5 -2 4 0
-9 -2 1 0
-9 -1 -4 0
-7 10 -1 0
3 -8 -6 0
5 -7 -8 0
-8 -7 -5 0
9 1 -7 0
-4 2 8 0
-9 4 2 0
-7 -1 -6 0
8 -1 6 0
-8 -1 6 0
2 -9 -3 0
-10 7 -5 0
-3 1 -10 0
-8 1 10 0
-2 10 9 0
